100
32
11
31
7
27
21
30
4
7
23
6
17
14
5
26
15
11
7
13
12
11
2
14
17
8
2
1
1
2
5
1
8
17
4
4
1
18
3
1
5
5
3
1
1
18
2
4
1
3
22
7
2
17
1
2
2
1
6
2
17
2
1
3
18
8
2
3
1
17
2
2
1
1
1
4
18
1
3
3
2
1
1
1
2
1
1
4
1
1
17
4
1
1
2
2
1
1
2
3
2
1